15
0 38 13 73 10 76 6 80 65 17 2 77 72 7 26 
38 0 51 21 19 85 12 29 30 15 51 69 88 88 95 
13 51 0 97 87 14 10 8 64 62 23 58 2 1 61 
73 21 97 0 82 9 89 14 48 73 31 72 4 71 22 
10 19 87 82 0 50 58 4 69 25 44 77 27 53 81 
76 85 14 9 50 0 42 83 16 65 69 26 99 88 8 
6 12 10 89 58 42 0 27 26 23 10 68 24 28 38 
80 29 8 14 4 83 27 0 58 84 39 9 33 35 11 
65 30 64 48 69 16 26 58 0 24 16 88 26 72 93 
17 15 62 73 25 65 23 84 24 0 75 63 47 33 89 
2 51 23 31 44 69 10 39 16 75 0 24 56 66 78 
77 69 58 72 77 26 68 9 88 63 24 0 4 1 78 
72 88 2 4 27 99 24 33 26 47 56 4 0 7 53 
7 88 1 71 53 88 28 35 72 33 66 1 7 0 86 
26 95 61 22 81 8 38 11 93 89 78 78 53 86 0 
